NAME : X-n143-k7
COMMENT : "Generated by Uchoa, Pecin, Pessoa, Poggi, Subramanian, and Vidal (2013)"
TYPE : CVRP
DIMENSION : 143
EDGE_WEIGHT_TYPE : EUC_2D
CAPACITY : 1190
NODE_COORD_SECTION
1 0 0
2 175 821
3 62 495
4 662 959
5 109 216
6 156 748
7 178 957
8 347 184
9 89 814
10 257 265
11 662 892
12 881 69
13 478 9
14 76 79
15 898 650
16 711 766
17 325 163
18 42 411
19 722 221
20 366 190
21 378 521
22 907 497
23 924 738
24 954 524
25 594 724
26 253 89
27 746 971
28 655 716
29 627 301
30 994 958
31 384 833
32 234 979
33 337 173
34 865 383
35 488 878
36 531 291
37 289 151
38 935 667
39 659 800
40 965 898
41 248 436
42 97 623
43 953 932
44 30 810
45 683 120
46 577 83
47 376 751
48 804 302
49 265 688
50 425 392
51 392 371
52 438 417
53 373 511
54 19 913
55 415 49
56 663 461
57 583 355
58 569 522
59 312 683
60 288 508
61 177 874
62 609 113
63 905 309
64 701 895
65 640 112
66 504 95
67 466 606
68 367 726
69 161 8
70 944 892
71 223 393
72 329 371
73 130 888
74 450 443
75 857 128
76 709 966
77 642 967
78 872 705
79 0 414
80 207 911
81 993 855
82 883 147
83 740 490
84 600 372
85 184 48
86 489 259
87 114 737
88 244 783
89 420 439
90 522 41
91 617 177
92 575 340
93 607 806
94 144 513
95 695 974
96 603 507
97 855 318
98 343 206
99 244 929
100 418 513
101 976 38
102 435 672
103 120 988
104 691 853
105 986 418
106 566 975
107 625 733
108 166 787
109 605 798
110 209 194
111 19 892
112 169 840
113 756 913
114 666 928
115 13 829
116 103 304
117 63 384
118 564 787
119 271 50
120 949 738
121 357 228
122 363 898
123 912 704
124 765 462
125 167 348
126 848 405
127 5 76
128 188 65
129 229 41
130 632 968
131 75 96
132 936 903
133 982 492
134 658 258
135 600 833
136 299 593
137 65 277
138 695 468
139 508 995
140 651 522
141 824 865
142 842 802
143 684 432
PICKUP_AND_DELIVERY_SECTION
1 0 0 1000000000 0 0 0
2 0 0 1000000000 0 0 95
3 0 0 1000000000 0 0 35
4 0 0 1000000000 0 0 81
5 0 0 1000000000 0 12 0
6 0 0 1000000000 0 0 3
7 0 0 1000000000 0 0 99
8 0 0 1000000000 0 0 47
9 0 0 1000000000 0 64 0
10 0 0 1000000000 0 0 20
11 0 0 1000000000 0 0 47
12 0 0 1000000000 0 0 27
13 0 0 1000000000 0 77 0
14 0 0 1000000000 0 0 50
15 0 0 1000000000 0 0 75
16 0 0 1000000000 0 0 14
17 0 0 1000000000 0 24 0
18 0 0 1000000000 0 0 3
19 0 0 1000000000 0 0 58
20 0 0 1000000000 0 0 65
21 0 0 1000000000 0 98 0
22 0 0 1000000000 0 0 35
23 0 0 1000000000 0 0 35
24 0 0 1000000000 0 0 45
25 0 0 1000000000 0 52 0
26 0 0 1000000000 0 0 11
27 0 0 1000000000 0 0 13
28 0 0 1000000000 0 0 11
29 0 0 1000000000 0 76 0
30 0 0 1000000000 0 0 98
31 0 0 1000000000 0 0 5
32 0 0 1000000000 0 0 9
33 0 0 1000000000 0 87 0
34 0 0 1000000000 0 0 71
35 0 0 1000000000 0 0 83
36 0 0 1000000000 0 0 2
37 0 0 1000000000 0 54 0
38 0 0 1000000000 0 0 63
39 0 0 1000000000 0 0 63
40 0 0 1000000000 0 0 21
41 0 0 1000000000 0 36 0
42 0 0 1000000000 0 0 17
43 0 0 1000000000 0 0 15
44 0 0 1000000000 0 0 44
45 0 0 1000000000 0 62 0
46 0 0 1000000000 0 0 87
47 0 0 1000000000 0 0 90
48 0 0 1000000000 0 0 92
49 0 0 1000000000 0 18 0
50 0 0 1000000000 0 0 41
51 0 0 1000000000 0 0 85
52 0 0 1000000000 0 0 62
53 0 0 1000000000 0 72 0
54 0 0 1000000000 0 0 9
55 0 0 1000000000 0 0 18
56 0 0 1000000000 0 0 76
57 0 0 1000000000 0 17 0
58 0 0 1000000000 0 0 42
59 0 0 1000000000 0 0 43
60 0 0 1000000000 0 0 55
61 0 0 1000000000 0 42 0
62 0 0 1000000000 0 0 2
63 0 0 1000000000 0 0 78
64 0 0 1000000000 0 0 25
65 0 0 1000000000 0 29 0
66 0 0 1000000000 0 0 78
67 0 0 1000000000 0 0 67
68 0 0 1000000000 0 0 40
69 0 0 1000000000 0 71 0
70 0 0 1000000000 0 0 21
71 0 0 1000000000 0 0 57
72 0 0 1000000000 0 0 35
73 0 0 1000000000 0 17 0
74 0 0 1000000000 0 0 14
75 0 0 1000000000 0 0 11
76 0 0 1000000000 0 0 3
77 0 0 1000000000 0 45 0
78 0 0 1000000000 0 0 54
79 0 0 1000000000 0 0 39
80 0 0 1000000000 0 0 96
81 0 0 1000000000 0 56 0
82 0 0 1000000000 0 0 73
83 0 0 1000000000 0 0 55
84 0 0 1000000000 0 0 53
85 0 0 1000000000 0 92 0
86 0 0 1000000000 0 0 71
87 0 0 1000000000 0 0 63
88 0 0 1000000000 0 0 47
89 0 0 1000000000 0 86 0
90 0 0 1000000000 0 0 86
91 0 0 1000000000 0 0 58
92 0 0 1000000000 0 0 68
93 0 0 1000000000 0 27 0
94 0 0 1000000000 0 0 77
95 0 0 1000000000 0 0 67
96 0 0 1000000000 0 0 19
97 0 0 1000000000 0 60 0
98 0 0 1000000000 0 0 42
99 0 0 1000000000 0 0 3
100 0 0 1000000000 0 0 47
101 0 0 1000000000 0 4 0
102 0 0 1000000000 0 0 57
103 0 0 1000000000 0 0 44
104 0 0 1000000000 0 0 90
105 0 0 1000000000 0 97 0
106 0 0 1000000000 0 0 37
107 0 0 1000000000 0 0 49
108 0 0 1000000000 0 0 58
109 0 0 1000000000 0 67 0
110 0 0 1000000000 0 0 30
111 0 0 1000000000 0 0 85
112 0 0 1000000000 0 0 31
113 0 0 1000000000 0 28 0
114 0 0 1000000000 0 0 26
115 0 0 1000000000 0 0 86
116 0 0 1000000000 0 0 90
117 0 0 1000000000 0 99 0
118 0 0 1000000000 0 0 99
119 0 0 1000000000 0 0 35
120 0 0 1000000000 0 0 62
121 0 0 1000000000 0 49 0
122 0 0 1000000000 0 0 71
123 0 0 1000000000 0 0 74
124 0 0 1000000000 0 0 3
125 0 0 1000000000 0 71 0
126 0 0 1000000000 0 0 99
127 0 0 1000000000 0 0 38
128 0 0 1000000000 0 0 96
129 0 0 1000000000 0 71 0
130 0 0 1000000000 0 0 92
131 0 0 1000000000 0 0 6
132 0 0 1000000000 0 0 77
133 0 0 1000000000 0 94 0
134 0 0 1000000000 0 0 47
135 0 0 1000000000 0 0 92
136 0 0 1000000000 0 0 90
137 0 0 1000000000 0 67 0
138 0 0 1000000000 0 0 16
139 0 0 1000000000 0 0 47
140 0 0 1000000000 0 0 61
141 0 0 1000000000 0 68 0
142 0 0 1000000000 0 0 93
143 0 0 1000000000 0 0 96
